0000000000000000
0000000000000000
0000000000000000
0000000000000000
0000011111000000
0000000001100000
0000000000100000
0000001000100000
0000001000100000
0000001000100000
0000000000000000
0000000000000000
0000000000000000
0000000000000000
0000000000000000
0000000000000000
